NAME : random145.899.tour
COMMENT : Length = 899
COMMENT : Found by LKH [Keld Helsgaun] Mon Dec 30 22:02:50 2024
TYPE : TOUR
DIMENSION : 145
TOUR_SECTION
1
13
97
42
139
96
72
140
40
15
67
19
105
99
88
116
62
54
26
37
39
101
80
47
66
127
122
135
2
51
83
35
23
92
63
18
121
73
141
17
78
130
68
100
50
48
107
108
41
125
142
113
71
94
85
4
53
34
86
111
9
43
109
115
64
27
134
114
79
5
95
33
46
10
20
129
74
31
123
21
30
82
36
110
3
144
32
61
22
65
119
138
69
6
112
91
93
70
145
131
45
136
24
84
75
77
29
25
87
44
55
11
133
60
102
117
52
8
103
89
118
124
57
14
49
143
90
98
59
56
132
137
12
104
128
16
58
120
28
76
126
38
106
7
81
-1
EOF
